(set-info :smt-lib-version 2.6)
(set-logic UF)
(set-info :source |Benchmarks from the paper: "Extending Sledgehammer with SMT Solvers" by Jasmin Blanchette, Sascha Bohme, and Lawrence C. Paulson, CADE 2011.  Translated to SMT2 by Andrew Reynolds and Morgan Deters.|)
(set-info :category "industrial")
(set-info :status sat)
(declare-sort S1 0)
(declare-sort S2 0)
(declare-sort S3 0)
(declare-sort S4 0)
(declare-sort S5 0)
(declare-sort S6 0)
(declare-sort S7 0)
(declare-sort S8 0)
(declare-sort S9 0)
(declare-sort S10 0)
(declare-sort S11 0)
(declare-sort S12 0)
(declare-sort S13 0)
(declare-sort S14 0)
(declare-sort S15 0)
(declare-sort S16 0)
(declare-sort S17 0)
(declare-sort S18 0)
(declare-sort S19 0)
(declare-sort S20 0)
(declare-fun f1 () S1)
(declare-fun f2 () S1)
(declare-fun f3 (S2 S3) S4)
(declare-fun f4 (S5 S4) S2)
(declare-fun f5 () S5)
(declare-fun f6 (S6 S4) S4)
(declare-fun f7 () S6)
(declare-fun f8 () S4)
(declare-fun f9 (S7 S8) S3)
(declare-fun f10 () S7)
(declare-fun f11 (S9 S8) S8)
(declare-fun f12 () S9)
(declare-fun f13 () S9)
(declare-fun f14 () S8)
(declare-fun f15 (S10 S10) S1)
(declare-fun f16 () S10)
(declare-fun f17 () S10)
(declare-fun f18 () S10)
(declare-fun f19 (S11 S10) S4)
(declare-fun f20 (S12 S10) S11)
(declare-fun f21 () S12)
(declare-fun f22 (S13 S3) S10)
(declare-fun f23 (S14 S10) S13)
(declare-fun f24 () S14)
(declare-fun f25 (S15 S10) S10)
(declare-fun f26 () S15)
(declare-fun f27 () S4)
(declare-fun f28 (S16 S3) S8)
(declare-fun f29 (S17 S8) S16)
(declare-fun f30 () S17)
(declare-fun f31 () S8)
(declare-fun f32 (S18 S3) S3)
(declare-fun f33 (S19 S3) S18)
(declare-fun f34 () S19)
(declare-fun f35 () S3)
(declare-fun f36 (S8 S8) S1)
(declare-fun f37 (S3 S3) S1)
(declare-fun f38 (S20 S8) S10)
(declare-fun f39 () S20)
(declare-fun f40 () S9)
(assert (not (= f1 f2)))
(assert (not (= (f3 (f4 f5 (f6 f7 f8)) (f9 f10 (f11 f12 (f11 f13 f14)))) f8)))
(assert (= (f15 f16 f17) f1))
(assert (= f18 f16))
(assert (= f8 (f19 (f20 f21 f17) f18)))
(assert (= (f22 (f23 f24 (f25 f26 f17)) (f9 f10 (f11 f12 (f11 f13 f14)))) f17))
(assert (= f8 (f19 (f20 f21 f17) f18)))
(assert (= (f22 (f23 f24 (f25 f26 f17)) (f9 f10 (f11 f12 (f11 f13 f14)))) f17))
(assert (=> (forall ((?v0 S10) (?v1 S10)) (=> (= f8 (f19 (f20 f21 ?v0) ?v1)) false)) false))
(assert (= (f3 (f4 f5 f27) (f9 f10 (f11 f12 (f11 f13 f14)))) f27))
(assert (= (f22 (f23 f24 f16) (f9 f10 (f11 f12 (f11 f13 f14)))) f16))
(assert (= (f28 (f29 f30 f31) (f9 f10 (f11 f12 (f11 f13 f14)))) f31))
(assert (= (f32 (f33 f34 f35) (f9 f10 (f11 f12 (f11 f13 f14)))) f35))
(assert (forall ((?v0 S4)) (= (= (f3 (f4 f5 ?v0) (f9 f10 (f11 f12 (f11 f13 f14)))) f27) (= ?v0 f27))))
(assert (forall ((?v0 S10)) (= (= (f22 (f23 f24 ?v0) (f9 f10 (f11 f12 (f11 f13 f14)))) f16) (= ?v0 f16))))
(assert (forall ((?v0 S8)) (= (= (f28 (f29 f30 ?v0) (f9 f10 (f11 f12 (f11 f13 f14)))) f31) (= ?v0 f31))))
(assert (= (f11 f12 f14) f14))
(assert (forall ((?v0 S8)) (= (= f14 (f11 f12 ?v0)) (= f14 ?v0))))
(assert (forall ((?v0 S8)) (= (= (f11 f12 ?v0) f14) (= ?v0 f14))))
(assert (forall ((?v0 S8) (?v1 S8)) (= (= (f11 f12 ?v0) (f11 f13 ?v1)) false)))
(assert (forall ((?v0 S8) (?v1 S8)) (= (= (f11 f13 ?v0) (f11 f12 ?v1)) false)))
(assert (forall ((?v0 S8)) (= (= f14 (f11 f13 ?v0)) false)))
(assert (forall ((?v0 S8)) (= (= (f11 f13 ?v0) f14) false)))
(assert (forall ((?v0 S10)) (= (f15 f16 (f22 (f23 f24 ?v0) (f9 f10 (f11 f12 (f11 f13 f14))))) f1)))
(assert (forall ((?v0 S8)) (= (f36 f31 (f28 (f29 f30 ?v0) (f9 f10 (f11 f12 (f11 f13 f14))))) f1)))
(assert (forall ((?v0 S10) (?v1 S10)) (let ((?v_0 (f9 f10 (f11 f12 (f11 f13 f14))))) (=> (= (f15 (f22 (f23 f24 ?v0) ?v_0) (f22 (f23 f24 ?v1) ?v_0)) f1) (=> (= (f15 f16 ?v1) f1) (= (f15 ?v0 ?v1) f1))))))
(assert (forall ((?v0 S8) (?v1 S8)) (let ((?v_0 (f9 f10 (f11 f12 (f11 f13 f14))))) (=> (= (f36 (f28 (f29 f30 ?v0) ?v_0) (f28 (f29 f30 ?v1) ?v_0)) f1) (=> (= (f36 f31 ?v1) f1) (= (f36 ?v0 ?v1) f1))))))
(assert (forall ((?v0 S3) (?v1 S3)) (let ((?v_0 (f9 f10 (f11 f12 (f11 f13 f14))))) (=> (= (f37 (f32 (f33 f34 ?v0) ?v_0) (f32 (f33 f34 ?v1) ?v_0)) f1) (=> (= (f37 f35 ?v1) f1) (= (f37 ?v0 ?v1) f1))))))
(assert (forall ((?v0 S10) (?v1 S10)) (let ((?v_0 (f9 f10 (f11 f12 (f11 f13 f14))))) (=> (= (f22 (f23 f24 ?v0) ?v_0) (f22 (f23 f24 ?v1) ?v_0)) (=> (= (f15 f16 ?v0) f1) (=> (= (f15 f16 ?v1) f1) (= ?v0 ?v1)))))))
(assert (forall ((?v0 S8) (?v1 S8)) (let ((?v_0 (f9 f10 (f11 f12 (f11 f13 f14))))) (=> (= (f28 (f29 f30 ?v0) ?v_0) (f28 (f29 f30 ?v1) ?v_0)) (=> (= (f36 f31 ?v0) f1) (=> (= (f36 f31 ?v1) f1) (= ?v0 ?v1)))))))
(assert (forall ((?v0 S3) (?v1 S3)) (let ((?v_0 (f9 f10 (f11 f12 (f11 f13 f14))))) (=> (= (f32 (f33 f34 ?v0) ?v_0) (f32 (f33 f34 ?v1) ?v_0)) (=> (= (f37 f35 ?v0) f1) (=> (= (f37 f35 ?v1) f1) (= ?v0 ?v1)))))))
(assert (= (f15 f16 f17) f1))
(assert (= f18 f16))
(assert (forall ((?v0 S8) (?v1 S8)) (= (= (f15 (f38 f39 ?v0) (f38 f39 ?v1)) f1) (= (f36 ?v0 ?v1) f1))))
(assert (forall ((?v0 S8) (?v1 S8)) (= (= (f36 (f11 f40 ?v0) (f11 f40 ?v1)) f1) (= (f36 ?v0 ?v1) f1))))
(assert (forall ((?v0 S8) (?v1 S8)) (= (= (f36 (f11 f13 ?v0) (f11 f13 ?v1)) f1) (= (f36 ?v0 ?v1) f1))))
(assert (forall ((?v0 S8) (?v1 S8)) (= (= (f36 (f11 f13 ?v0) (f11 f13 ?v1)) f1) (= (f36 ?v0 ?v1) f1))))
(assert (= (= (f36 f14 f14) f1) true))
(assert (forall ((?v0 S8) (?v1 S8)) (= (= (f36 (f11 f12 ?v0) (f11 f12 ?v1)) f1) (= (f36 ?v0 ?v1) f1))))
(assert (forall ((?v0 S8) (?v1 S8)) (= (= (f36 (f11 f12 ?v0) (f11 f12 ?v1)) f1) (= (f36 ?v0 ?v1) f1))))
(assert (= f14 f31))
(assert (forall ((?v0 S8) (?v1 S8)) (= (= (f37 (f9 f10 ?v0) (f9 f10 ?v1)) f1) (ite (= (f36 ?v0 ?v1) f1) true (= (f36 ?v0 f14) f1)))))
(assert (forall ((?v0 S8)) (= (= (f9 f10 ?v0) f35) (= (f36 ?v0 f14) f1))))
(assert (forall ((?v0 S8)) (= (= f35 (f9 f10 ?v0)) (= (f36 ?v0 f14) f1))))
(assert (forall ((?v0 S8)) (= (= (f15 (f38 f39 ?v0) f16) f1) (= (f36 ?v0 f14) f1))))
(assert (forall ((?v0 S8)) (= (= (f36 (f11 f40 ?v0) f31) f1) (= (f36 ?v0 f14) f1))))
(assert (forall ((?v0 S8)) (= (= (f15 f16 (f38 f39 ?v0)) f1) (= (f36 f14 ?v0) f1))))
(assert (forall ((?v0 S8)) (= (= (f36 f31 (f11 f40 ?v0)) f1) (= (f36 f14 ?v0) f1))))
(assert (forall ((?v0 S8)) (= (= (f36 f14 (f11 f13 ?v0)) f1) (= (f36 f14 ?v0) f1))))
(assert (forall ((?v0 S8) (?v1 S8)) (= (= (f36 (f11 f12 ?v0) (f11 f13 ?v1)) f1) (= (f36 ?v0 ?v1) f1))))
(assert (forall ((?v0 S8) (?v1 S8)) (= (= (f36 (f11 f12 ?v0) (f11 f13 ?v1)) f1) (= (f36 ?v0 ?v1) f1))))
(check-sat)
(exit)
